p cnf 102 468
c p weight 16 0 0
c p weight -16 1 0
c p weight 17 1.0 0
c p weight -17 1 0
c p weight 25 0 0
c p weight -25 1 0
c p weight 26 1.0 0
c p weight -26 1 0
c p weight 34 0 0
c p weight -34 1 0
c p weight 35 1.0 0
c p weight -35 1 0
c p weight 42 0 0
c p weight -42 1 0
c p weight 43 1.0 0
c p weight -43 1 0
c p weight 52 0 0
c p weight -52 1 0
c p weight 53 1.0 0
c p weight -53 1 0
c p weight 64 0 0
c p weight -64 1 0
c p weight 65 1.0 0
c p weight -65 1 0
c p weight 76 0 0
c p weight -76 1 0
c p weight 77 1.0 0
c p weight -77 1 0
c p weight 87 0 0
c p weight -87 1 0
c p weight 88 1.0 0
c p weight -88 1 0
c p weight 99 0 0
c p weight -99 1 0
c p weight 100 1.0 0
c p weight -100 1 0
12 -11 1 0
12 -11 2 0
-12 11 1 0
-12 11 2 0
12 11 -1 -2 0
-12 -11 -1 -2 0
13 1 -2 0
13 -1 2 0
-13 1 2 0
-13 -1 -2 0
14 15 -12 0
14 -12 13 0
-14 15 12 0
-14 12 13 0
14 -12 -1 0
-14 12 -1 0
14 -15 12 1 -13 0
-14 -15 -12 1 -13 0
15 -1 13 0
-15 1 13 0
-16 13 0
15 -16 -1 0
-15 -16 1 0
15 16 1 -13 0
-15 16 -1 -13 0
-17 13 0
15 -17 1 0
-15 -17 -1 0
15 17 -1 -13 0
-15 17 1 -13 0
18 -14 15 0
18 -14 13 0
-18 14 15 0
-18 14 13 0
18 14 -15 -13 0
-18 -14 -15 -13 0
19 15 -13 0
19 -15 13 0
-19 15 13 0
-19 -15 -13 0
20 18 -19 0
20 -18 19 0
-20 18 19 0
-20 -18 -19 0
21 -20 3 0
21 -20 4 0
-21 20 3 0
-21 20 4 0
21 20 -3 -4 0
-21 -20 -3 -4 0
22 3 -4 0
22 -3 4 0
-22 3 4 0
-22 -3 -4 0
23 24 -21 0
23 -21 22 0
-23 24 21 0
-23 21 22 0
23 -21 -3 0
-23 21 -3 0
23 -24 21 3 -22 0
-23 -24 -21 3 -22 0
24 -3 22 0
-24 3 22 0
-25 22 0
24 -25 -3 0
-24 -25 3 0
24 25 3 -22 0
-24 25 -3 -22 0
-26 22 0
24 -26 3 0
-24 -26 -3 0
24 26 -3 -22 0
-24 26 3 -22 0
27 -23 24 0
27 -23 22 0
-27 23 24 0
-27 23 22 0
27 23 -24 -22 0
-27 -23 -24 -22 0
28 24 -22 0
28 -24 22 0
-28 24 22 0
-28 -24 -22 0
29 27 -28 0
29 -27 28 0
-29 27 28 0
-29 -27 -28 0
30 -29 5 0
30 -29 6 0
-30 29 5 0
-30 29 6 0
30 29 -5 -6 0
-30 -29 -5 -6 0
31 5 -6 0
31 -5 6 0
-31 5 6 0
-31 -5 -6 0
32 33 -30 0
32 -30 31 0
-32 33 30 0
-32 30 31 0
32 -30 -5 0
-32 30 -5 0
32 -33 30 5 -31 0
-32 -33 -30 5 -31 0
33 -5 31 0
-33 5 31 0
-34 31 0
33 -34 -5 0
-33 -34 5 0
33 34 5 -31 0
-33 34 -5 -31 0
-35 31 0
33 -35 5 0
-33 -35 -5 0
33 35 -5 -31 0
-33 35 5 -31 0
36 -32 33 0
36 -32 31 0
-36 32 33 0
-36 32 31 0
36 32 -33 -31 0
-36 -32 -33 -31 0
37 33 -31 0
37 -33 31 0
-37 33 31 0
-37 -33 -31 0
38 -36 7 0
38 -36 8 0
-38 36 7 0
-38 36 8 0
38 36 -7 -8 0
-38 -36 -7 -8 0
39 7 -8 0
39 -7 8 0
-39 7 8 0
-39 -7 -8 0
40 41 -38 0
40 -38 39 0
-40 41 38 0
-40 38 39 0
40 -38 -7 0
-40 38 -7 0
40 -41 38 7 -39 0
-40 -41 -38 7 -39 0
41 -7 39 0
-41 7 39 0
-42 39 0
41 -42 -7 0
-41 -42 7 0
41 42 7 -39 0
-41 42 -7 -39 0
-43 39 0
41 -43 7 0
-41 -43 -7 0
41 43 -7 -39 0
-41 43 7 -39 0
44 -40 41 0
44 -40 39 0
-44 40 41 0
-44 40 39 0
44 40 -41 -39 0
-44 -40 -41 -39 0
45 41 -39 0
45 -41 39 0
-45 41 39 0
-45 -41 -39 0
46 44 -45 0
46 -44 45 0
-46 44 45 0
-46 -44 -45 0
47 46 -10 0
47 -46 10 0
-47 46 10 0
-47 -46 -10 0
48 -47 9 0
48 -47 10 0
-48 47 9 0
-48 47 10 0
48 47 -9 -10 0
-48 -47 -9 -10 0
49 9 -10 0
49 -9 10 0
-49 9 10 0
-49 -9 -10 0
50 51 -48 0
50 -48 49 0
-50 51 48 0
-50 48 49 0
50 -48 -9 0
-50 48 -9 0
50 -51 48 9 -49 0
-50 -51 -48 9 -49 0
51 -9 49 0
-51 9 49 0
-52 49 0
51 -52 -9 0
-51 -52 9 0
51 52 9 -49 0
-51 52 -9 -49 0
-53 49 0
51 -53 9 0
-51 -53 -9 0
51 53 -9 -49 0
-51 53 9 -49 0
54 -50 51 0
54 -50 49 0
-54 50 51 0
-54 50 49 0
54 50 -51 -49 0
-54 -50 -51 -49 0
55 51 -49 0
55 -51 49 0
-55 51 49 0
-55 -51 -49 0
56 -54 15 0
56 -54 55 0
-56 54 15 0
-56 54 55 0
56 -54 51 -19 0
56 -54 -51 19 0
-56 54 51 -19 0
-56 54 -51 19 0
56 54 -15 51 19 -55 0
56 54 -15 -51 -19 -55 0
-56 -54 -15 51 19 -55 0
-56 -54 -15 -51 -19 -55 0
58 15 -51 0
58 -15 51 0
-58 15 51 0
-58 -15 -51 0
57 19 -55 0
57 -19 55 0
-57 19 55 0
-57 -19 -55 0
59 56 -57 0
59 -56 57 0
-59 56 57 0
-59 -56 -57 0
60 -59 15 0
60 -59 57 0
-60 59 15 0
-60 59 57 0
60 59 -15 -57 0
-60 -59 -15 -57 0
61 15 -57 0
61 -15 57 0
-61 15 57 0
-61 -15 -57 0
62 63 -60 0
62 -60 61 0
-62 63 60 0
-62 60 61 0
62 -60 -15 0
-62 60 -15 0
62 -63 60 15 -61 0
-62 -63 -60 15 -61 0
63 -15 61 0
-63 15 61 0
-64 61 0
63 -64 -15 0
-63 -64 15 0
63 64 15 -61 0
-63 64 -15 -61 0
-65 61 0
63 -65 15 0
-63 -65 -15 0
63 65 -15 -61 0
-63 65 15 -61 0
66 -62 63 0
66 -62 61 0
-66 62 63 0
-66 62 61 0
66 62 -63 -61 0
-66 -62 -63 -61 0
67 63 -61 0
67 -63 61 0
-67 63 61 0
-67 -63 -61 0
68 -66 24 0
68 -66 55 0
-68 66 24 0
-68 66 55 0
68 -66 58 -28 0
68 -66 -58 28 0
-68 66 58 -28 0
-68 66 -58 28 0
68 66 -24 58 28 -55 0
68 66 -24 -58 -28 -55 0
-68 -66 -24 58 28 -55 0
-68 -66 -24 -58 -28 -55 0
70 24 -58 0
70 -24 58 0
-70 24 58 0
-70 -24 -58 0
69 28 -55 0
69 -28 55 0
-69 28 55 0
-69 -28 -55 0
71 68 -69 0
71 -68 69 0
-71 68 69 0
-71 -68 -69 0
72 -71 24 0
72 -71 69 0
-72 71 24 0
-72 71 69 0
72 71 -24 -69 0
-72 -71 -24 -69 0
73 24 -69 0
73 -24 69 0
-73 24 69 0
-73 -24 -69 0
74 75 -72 0
74 -72 73 0
-74 75 72 0
-74 72 73 0
74 -72 -24 0
-74 72 -24 0
74 -75 72 24 -73 0
-74 -75 -72 24 -73 0
75 -24 73 0
-75 24 73 0
-76 73 0
75 -76 -24 0
-75 -76 24 0
75 76 24 -73 0
-75 76 -24 -73 0
-77 73 0
75 -77 24 0
-75 -77 -24 0
75 77 -24 -73 0
-75 77 24 -73 0
78 -74 75 0
78 -74 73 0
-78 74 75 0
-78 74 73 0
78 74 -75 -73 0
-78 -74 -75 -73 0
79 75 -73 0
79 -75 73 0
-79 75 73 0
-79 -75 -73 0
80 -78 33 0
80 -78 55 0
-80 78 33 0
-80 78 55 0
80 -78 70 -37 0
80 -78 -70 37 0
-80 78 70 -37 0
-80 78 -70 37 0
80 78 -33 70 37 -55 0
80 78 -33 -70 -37 -55 0
-80 -78 -33 70 37 -55 0
-80 -78 -33 -70 -37 -55 0
82 33 -70 0
82 -33 70 0
-82 33 70 0
-82 -33 -70 0
81 37 -55 0
81 -37 55 0
-81 37 55 0
-81 -37 -55 0
83 -80 33 0
83 -80 81 0
-83 80 33 0
-83 80 81 0
83 80 -33 -81 0
-83 -80 -33 -81 0
84 33 -81 0
84 -33 81 0
-84 33 81 0
-84 -33 -81 0
85 86 -83 0
85 -83 84 0
-85 86 83 0
-85 83 84 0
85 -83 -33 0
-85 83 -33 0
85 -86 83 33 -84 0
-85 -86 -83 33 -84 0
86 -33 84 0
-86 33 84 0
-87 84 0
86 -87 -33 0
-86 -87 33 0
86 87 33 -84 0
-86 87 -33 -84 0
-88 84 0
86 -88 33 0
-86 -88 -33 0
86 88 -33 -84 0
-86 88 33 -84 0
89 -85 86 0
89 -85 84 0
-89 85 86 0
-89 85 84 0
89 85 -86 -84 0
-89 -85 -86 -84 0
90 86 -84 0
90 -86 84 0
-90 86 84 0
-90 -86 -84 0
91 -89 41 0
91 -89 55 0
-91 89 41 0
-91 89 55 0
91 -89 82 -45 0
91 -89 -82 45 0
-91 89 82 -45 0
-91 89 -82 45 0
91 89 -41 82 45 -55 0
91 89 -41 -82 -45 -55 0
-91 -89 -41 82 45 -55 0
-91 -89 -41 -82 -45 -55 0
93 41 -82 0
93 -41 82 0
-93 41 82 0
-93 -41 -82 0
92 45 -55 0
92 -45 55 0
-92 45 55 0
-92 -45 -55 0
94 91 -92 0
94 -91 92 0
-94 91 92 0
-94 -91 -92 0
95 -94 41 0
95 -94 92 0
-95 94 41 0
-95 94 92 0
95 94 -41 -92 0
-95 -94 -41 -92 0
96 41 -92 0
96 -41 92 0
-96 41 92 0
-96 -41 -92 0
97 98 -95 0
97 -95 96 0
-97 98 95 0
-97 95 96 0
97 -95 -41 0
-97 95 -41 0
97 -98 95 41 -96 0
-97 -98 -95 41 -96 0
98 -41 96 0
-98 41 96 0
-99 96 0
98 -99 -41 0
-98 -99 41 0
98 99 41 -96 0
-98 99 -41 -96 0
-100 96 0
98 -100 41 0
-98 -100 -41 0
98 100 -41 -96 0
-98 100 41 -96 0
101 -97 98 0
101 -97 96 0
-101 97 98 0
-101 97 96 0
101 97 -98 -96 0
-101 -97 -98 -96 0
102 98 -96 0
102 -98 96 0
-102 98 96 0
-102 -98 -96 0
